LPs/24_8_12/CW_24_8_12a8smaller495.dat-s
5
7
1 1 1 1 1 1 1
-1 -1 -1 -1 -1
0 1 1 1 -3
2 1 1 1 1
4 1 1 1 -1
5 1 1 1 -3
0 2 1 1 -198
2 2 1 1 14
3 2 1 1 -9
4 2 1 1 14
5 2 1 1 198
0 3 1 1 -165
2 3 1 1 -1
4 3 1 1 1
5 3 1 1 -165
0 4 1 1 -10890
2 4 1 1 -142
3 4 1 1 75
4 4 1 1 -142
5 4 1 1 10890
0 5 1 1 -1
1 5 1 1 -1
0 6 1 1 1
1 6 1 1 1
0 7 1 1 -1275118
2 7 1 1 -2576
