LPs/24_8_12/CW_24_8_12a8smaller495.result
SDPA-GMP start at Fri Apr 20 13:22:11 2018
data      is CW_24_8_12a8smaller495.dat-s
parameter is ./param.sdpa
out       is CW_24_8_12a8smaller495.result
DENSE computation
   mu      thetaP  thetaD  objP      objD      alphaP  alphaD  beta 
 0 1.0e+10 1.0e+00 1.0e+00 +0.00e+00 -1.29e+11 8.3e-01 9.0e-01 2.00e-01
 1 1.9e+09 1.7e-01 1.0e-01 -8.72e+03 -1.29e+10 8.1e-01 8.9e-01 2.00e-01
 2 4.5e+08 3.1e-02 1.1e-02 -4.35e+03 -1.39e+09 9.0e-01 8.1e-01 2.00e-01
 3 6.8e+07 3.2e-03 2.1e-03 -1.77e+03 -2.70e+08 9.0e-01 6.2e-01 2.00e-01
 4 2.3e+07 3.2e-04 8.1e-04 +1.13e+03 -1.04e+08 9.0e-01 8.9e-01 2.00e-01
 5 3.5e+06 3.2e-05 9.2e-05 +2.75e+03 -1.19e+07 9.0e-01 8.9e-01 2.00e-01
 6 5.4e+05 3.2e-06 1.1e-05 +4.38e+03 -1.37e+06 9.0e-01 9.0e-01 2.00e-01
 7 7.4e+04 3.2e-07 1.0e-06 +6.46e+03 -1.37e+05 9.0e-01 9.2e-01 2.00e-01
 8 1.0e+04 3.2e-08 8.7e-08 +8.93e+03 -1.38e+04 9.0e-01 1.0e+00 2.00e-01
 9 1.9e+03 3.2e-09 4.5e-161 +8.34e+03 -2.58e+03 9.0e-01 9.0e-01 2.00e-01
10 4.5e+02 3.2e-10 1.8e-160 +2.19e+02 -2.58e+03 9.0e-01 9.0e-01 2.00e-01
11 1.1e+02 3.2e-11 2.1e-159 -1.89e+03 -2.58e+03 9.0e-01 9.0e-01 2.00e-01
12 2.6e+01 3.2e-12 9.6e-161 -2.41e+03 -2.58e+03 9.0e-01 9.0e-01 2.00e-01
13 6.2e+00 3.2e-13 8.2e-158 -2.54e+03 -2.58e+03 9.0e-01 9.0e-01 2.00e-01
14 1.5e+00 3.2e-14 7.6e-157 -2.57e+03 -2.58e+03 9.0e-01 9.0e-01 2.00e-01
15 3.5e-01 3.2e-15 7.6e-158 -2.57e+03 -2.58e+03 9.0e-01 9.0e+01 2.00e-01
16 4.4e-01 3.2e-16 6.7e-156 -2.58e+03 -2.58e+03 9.0e-01 9.0e-01 2.00e-01
17 1.1e-01 3.2e-17 3.3e-154 -2.58e+03 -2.58e+03 9.0e-01 9.0e+01 2.00e-01
18 1.3e-01 3.2e-18 2.9e-152 -2.58e+03 -2.58e+03 9.0e-01 9.0e-01 2.00e-01
19 3.2e-02 3.2e-19 2.9e-153 -2.58e+03 -2.58e+03 9.0e-01 9.0e+01 2.00e-01
20 4.0e-02 3.2e-20 2.6e-151 -2.58e+03 -2.58e+03 9.0e-01 9.0e-01 2.00e-01
21 9.4e-03 3.2e-21 2.6e-152 -2.58e+03 -2.58e+03 9.0e-01 5.7e+01 2.00e-01
22 7.9e-03 3.2e-22 1.5e-150 -2.58e+03 -2.58e+03 9.0e-01 9.0e-01 2.00e-01
23 1.9e-03 3.2e-23 8.9e-152 -2.58e+03 -2.58e+03 9.0e-01 2.9e+00 2.00e-01
24 3.2e-04 3.2e-24 1.9e-150 -2.58e+03 -2.58e+03 9.0e-01 2.4e+00 2.00e-01
25 6.6e-05 3.2e-25 8.9e-150 -2.58e+03 -2.58e+03 9.0e-01 7.9e+00 2.00e-01
26 1.9e-05 3.2e-26 6.1e-149 -2.58e+03 -2.58e+03 9.0e-01 9.0e-01 2.00e-01
27 4.5e-06 3.2e-27 6.1e-150 -2.58e+03 -2.58e+03 9.0e-01 1.2e+00 2.00e-01
28 9.7e-07 3.2e-28 1.2e-150 -2.58e+03 -2.58e+03 9.0e-01 1.9e+00 2.00e-01
29 2.2e-07 3.2e-29 1.0e-150 -2.58e+03 -2.58e+03 9.0e-01 9.0e-01 2.00e-01
30 5.2e-08 3.2e-30 9.5e-152 -2.58e+03 -2.58e+03 9.0e-01 1.2e+00 2.00e-01
31 1.1e-08 3.2e-31 2.2e-152 -2.58e+03 -2.58e+03 9.0e-01 1.9e+00 2.00e-01
32 2.5e-09 3.2e-32 1.6e-152 -2.58e+03 -2.58e+03 9.0e-01 9.0e-01 2.00e-01
33 6.0e-10 3.2e-33 1.4e-153 -2.58e+03 -2.58e+03 9.0e-01 1.2e+00 2.00e-01
34 1.3e-10 3.2e-34 4.7e-154 -2.58e+03 -2.58e+03 9.0e-01 1.9e+00 2.00e-01
35 2.9e-11 3.2e-35 6.6e-154 -2.58e+03 -2.58e+03 9.0e-01 9.0e-01 2.00e-01
36 7.0e-12 3.2e-36 5.1e-154 -2.58e+03 -2.58e+03 9.0e-01 1.2e+00 2.00e-01
37 1.5e-12 3.2e-37 5.1e-153 -2.58e+03 -2.58e+03 9.0e-01 1.9e+00 2.00e-01
38 3.4e-13 3.2e-38 2.9e-162 -2.58e+03 -2.58e+03 9.0e-01 9.0e-01 2.00e-01
39 8.1e-14 3.2e-39 1.5e-163 -2.58e+03 -2.58e+03 9.0e-01 1.2e+00 2.00e-01
40 1.8e-14 3.2e-40 4.1e-163 -2.58e+03 -2.58e+03 9.0e-01 1.9e+00 2.00e-01
41 3.9e-15 3.2e-41 3.0e-163 -2.58e+03 -2.58e+03 9.0e-01 9.0e-01 2.00e-01
42 9.4e-16 3.2e-42 3.0e-163 -2.58e+03 -2.58e+03 9.0e-01 1.2e+00 2.00e-01
43 2.0e-16 3.2e-43 4.4e-163 -2.58e+03 -2.58e+03 9.0e-01 1.9e+00 2.00e-01
44 4.6e-17 3.2e-44 1.4e-143 -2.58e+03 -2.58e+03 9.0e-01 9.0e-01 2.00e-01
45 1.1e-17 3.2e-45 3.7e-142 -2.58e+03 -2.58e+03 9.0e-01 1.2e+00 2.00e-01
46 2.4e-18 3.2e-46 5.9e-143 -2.58e+03 -2.58e+03 9.0e-01 1.9e+00 2.00e-01
47 5.3e-19 3.2e-47 1.1e-142 -2.58e+03 -2.58e+03 9.0e-01 9.0e-01 2.00e-01
48 1.3e-19 3.2e-48 8.0e-142 -2.58e+03 -2.58e+03 9.0e-01 1.2e+00 2.00e-01
49 2.7e-20 3.2e-49 1.5e-142 -2.58e+03 -2.58e+03 9.0e-01 1.9e+00 2.00e-01
50 6.2e-21 3.2e-50 1.4e-142 -2.58e+03 -2.58e+03 9.0e-01 9.0e-01 2.00e-01
51 1.5e-21 3.2e-51 1.3e-143 -2.58e+03 -2.58e+03 9.0e-01 1.2e+00 2.00e-01
52 3.2e-22 3.2e-52 2.5e-144 -2.58e+03 -2.58e+03 9.0e-01 1.9e+00 2.00e-01
53 7.2e-23 3.2e-53 5.0e-144 -2.58e+03 -2.58e+03 9.0e-01 9.0e-01 2.00e-01
54 1.7e-23 3.2e-54 1.3e-144 -2.58e+03 -2.58e+03 9.0e-01 1.2e+00 2.00e-01
55 3.7e-24 3.2e-55 3.5e-163 -2.58e+03 -2.58e+03 9.0e-01 1.9e+00 2.00e-01
56 8.3e-25 3.2e-56 2.5e-144 -2.58e+03 -2.58e+03 9.0e-01 9.0e-01 2.00e-01
57 2.0e-25 3.2e-57 4.5e-163 -2.58e+03 -2.58e+03 9.0e-01 1.2e+00 2.00e-01
58 4.3e-26 3.2e-58 9.2e-143 -2.58e+03 -2.58e+03 9.0e-01 1.9e+00 2.00e-01
59 9.6e-27 3.2e-59 1.5e-142 -2.58e+03 -2.58e+03 9.0e-01 9.0e-01 2.00e-01
60 2.3e-27 3.2e-60 4.3e-141 -2.58e+03 -2.58e+03 9.0e-01 1.2e+00 2.00e-01
61 5.0e-28 3.2e-61 3.3e-140 -2.58e+03 -2.58e+03 9.0e-01 1.9e+00 2.00e-01
62 1.1e-28 3.2e-62 2.1e-138 -2.58e+03 -2.58e+03 9.0e-01 9.0e-01 2.00e-01
63 2.7e-29 3.2e-63 5.1e-137 -2.58e+03 -2.58e+03 9.0e-01 1.2e+00 2.00e-01
64 5.8e-30 3.2e-64 3.2e-136 -2.58e+03 -2.58e+03 9.0e-01 1.9e+00 2.00e-01
65 1.3e-30 3.2e-65 2.9e-136 -2.58e+03 -2.58e+03 9.0e-01 9.0e-01 2.00e-01
66 3.1e-31 3.2e-66 2.9e-137 -2.58e+03 -2.58e+03 9.0e-01 1.2e+00 2.00e-01
67 6.7e-32 3.2e-67 5.4e-138 -2.58e+03 -2.58e+03 9.0e-01 1.9e+00 2.00e-01
68 1.5e-32 3.2e-68 4.8e-138 -2.58e+03 -2.58e+03 9.0e-01 9.0e-01 2.00e-01
69 3.6e-33 3.2e-69 4.7e-139 -2.58e+03 -2.58e+03 9.0e-01 1.2e+00 2.00e-01
70 7.8e-34 3.2e-70 2.1e-139 -2.58e+03 -2.58e+03 9.0e-01 1.9e+00 2.00e-01
71 1.7e-34 3.2e-71 1.8e-138 -2.58e+03 -2.58e+03 9.0e-01 9.0e-01 2.00e-01
72 4.2e-35 3.2e-72 3.7e-137 -2.58e+03 -2.58e+03 9.0e-01 1.2e+00 2.00e-01
73 9.0e-36 3.2e-73 1.1e-135 -2.58e+03 -2.58e+03 9.0e-01 1.9e+00 2.00e-01
74 2.0e-36 3.2e-74 4.6e-135 -2.58e+03 -2.58e+03 9.0e-01 9.0e-01 2.00e-01
75 4.8e-37 3.2e-75 3.6e-134 -2.58e+03 -2.58e+03 9.0e-01 1.2e+00 2.00e-01
76 1.0e-37 3.2e-76 3.9e-134 -2.58e+03 -2.58e+03 9.0e-01 1.9e+00 2.00e-01
77 2.4e-38 3.2e-77 9.3e-132 -2.58e+03 -2.58e+03 9.0e-01 9.0e-01 2.00e-01
78 5.6e-39 3.2e-78 5.1e-132 -2.58e+03 -2.58e+03 9.0e-01 1.2e+00 2.00e-01
79 1.2e-39 3.2e-79 9.6e-133 -2.58e+03 -2.58e+03 9.0e-01 1.9e+00 2.00e-01
80 2.7e-40 3.2e-80 5.5e-133 -2.58e+03 -2.58e+03 9.0e-01 9.0e-01 2.00e-01
81 6.5e-41 3.2e-81 2.1e-132 -2.58e+03 -2.58e+03 9.0e-01 1.2e+00 2.00e-01
82 1.4e-41 3.2e-82 1.5e-130 -2.58e+03 -2.58e+03 9.0e-01 1.9e+00 2.00e-01
83 3.2e-42 3.2e-83 2.6e-130 -2.58e+03 -2.58e+03 9.0e-01 9.0e-01 2.00e-01
84 7.6e-43 3.2e-84 2.6e-131 -2.58e+03 -2.58e+03 9.0e-01 1.2e+00 2.00e-01
85 1.6e-43 3.2e-85 4.8e-132 -2.58e+03 -2.58e+03 9.0e-01 1.9e+00 2.00e-01
86 3.7e-44 3.2e-86 1.4e-132 -2.58e+03 -2.58e+03 9.0e-01 9.0e-01 2.00e-01
87 8.8e-45 3.2e-87 4.2e-133 -2.58e+03 -2.58e+03 9.0e-01 1.2e+00 2.00e-01
88 1.9e-45 3.2e-88 1.5e-133 -2.58e+03 -2.58e+03 9.0e-01 1.9e+00 2.00e-01
89 4.3e-46 3.2e-89 2.0e-136 -2.58e+03 -2.58e+03 9.0e-01 9.0e-01 2.00e-01
90 1.0e-46 3.2e-90 1.0e-134 -2.58e+03 -2.58e+03 9.0e-01 1.2e+00 2.00e-01
91 2.2e-47 3.2e-91 4.9e-134 -2.58e+03 -2.58e+03 9.0e-01 1.9e+00 2.00e-01
92 5.0e-48 3.2e-92 2.0e-163 -2.58e+03 -2.58e+03 9.0e-01 9.0e-01 2.00e-01
93 1.2e-48 3.2e-93 4.1e-163 -2.58e+03 -2.58e+03 9.0e-01 1.2e+00 2.00e-01
94 2.6e-49 3.2e-94 3.9e-163 -2.58e+03 -2.58e+03 9.0e-01 1.9e+00 2.00e-01
95 5.8e-50 3.2e-95 3.4e-163 -2.58e+03 -2.58e+03 9.0e-01 9.0e-01 2.00e-01
96 1.4e-50 3.2e-96 2.3e-125 -2.58e+03 -2.58e+03 9.0e-01 1.2e+00 2.00e-01
97 3.0e-51 3.2e-97 2.9e-163 -2.58e+03 -2.58e+03 9.0e-01 1.9e+00 2.00e-01
98 6.7e-52 3.2e-98 4.5e-163 -2.58e+03 -2.58e+03 9.0e-01 9.0e-01 2.00e-01
99 1.6e-52 3.2e-99 5.6e-163 -2.58e+03 -2.58e+03 9.0e-01 1.2e+00 2.00e-01
100 3.5e-53 3.2e-100 2.3e-125 -2.58e+03 -2.58e+03 9.0e-01 1.9e+00 2.00e-01
101 7.8e-54 3.2e-101 1.2e-124 -2.58e+03 -2.58e+03 9.0e-01 9.0e-01 2.00e-01
102 1.9e-54 3.2e-102 1.3e-123 -2.58e+03 -2.58e+03 9.0e-01 1.2e+00 2.00e-01
103 4.0e-55 3.2e-103 2.6e-124 -2.58e+03 -2.58e+03 9.0e-01 1.9e+00 2.00e-01
104 9.0e-56 3.2e-104 2.1e-124 -2.58e+03 -2.58e+03 9.0e-01 9.0e-01 2.00e-01
105 2.1e-56 3.2e-105 3.3e-123 -2.58e+03 -2.58e+03 9.0e-01 1.2e+00 2.00e-01
106 4.7e-57 3.2e-106 1.6e-122 -2.58e+03 -2.58e+03 9.0e-01 1.9e+00 2.00e-01
107 1.0e-57 3.2e-107 4.2e-121 -2.58e+03 -2.58e+03 9.7e-01 1.1e+00 1.00e-01
108 1.2e-58 3.2e-107 5.0e-122 -2.58e+03 -2.58e+03 9.7e-01 1.0e+00 1.00e-01
109 1.3e-59 3.2e-107 1.1e-123 -2.58e+03 -2.58e+03 9.8e-01 1.0e+00 1.00e-01
110 1.3e-60 3.2e-107 2.7e-163 -2.58e+03 -2.58e+03 9.9e-01 1.0e+00 1.00e-01
111 1.3e-61 3.2e-107 2.3e-125 -2.58e+03 -2.58e+03 9.9e-01 1.0e+00 1.00e-01
112 1.3e-62 3.2e-107 2.3e-125 -2.58e+03 -2.58e+03 9.9e-01 1.0e+00 1.00e-01
113 1.3e-63 3.2e-107 2.0e-125 -2.58e+03 -2.58e+03 9.9e-01 1.0e+00 1.00e-01
114 1.3e-64 3.2e-107 4.9e-127 -2.58e+03 -2.58e+03 9.9e-01 1.0e+00 1.00e-01
115 1.3e-65 3.2e-107 1.2e-128 -2.58e+03 -2.58e+03 9.9e-01 1.0e+00 1.00e-01
116 1.3e-66 3.2e-107 3.1e-130 -2.58e+03 -2.58e+03 9.9e-01 1.0e+00 1.00e-01
117 1.3e-67 3.2e-107 7.9e-132 -2.58e+03 -2.58e+03 9.9e-01 1.0e+00 1.00e-01
118 1.3e-68 3.2e-107 2.0e-133 -2.58e+03 -2.58e+03 9.9e-01 1.0e+00 1.00e-01
119 1.3e-69 3.2e-107 5.0e-135 -2.58e+03 -2.58e+03 9.9e-01 1.0e+00 1.00e-01
120 1.3e-70 3.2e-107 1.3e-136 -2.58e+03 -2.58e+03 9.9e-01 1.0e+00 1.00e-01
121 1.3e-71 3.2e-107 3.2e-138 -2.58e+03 -2.58e+03 9.9e-01 1.0e+00 1.00e-01
122 1.3e-72 3.2e-107 8.1e-140 -2.58e+03 -2.58e+03 9.9e-01 1.0e+00 1.00e-01
123 1.3e-73 3.2e-107 2.0e-141 -2.58e+03 -2.58e+03 9.9e-01 1.0e+00 1.00e-01
124 1.3e-74 3.2e-107 5.0e-143 -2.58e+03 -2.58e+03 9.9e-01 1.0e+00 1.00e-01
125 1.3e-75 3.2e-107 1.3e-144 -2.58e+03 -2.58e+03 9.9e-01 1.0e+00 1.00e-01
126 1.3e-76 3.2e-107 1.3e-144 -2.58e+03 -2.58e+03 9.9e-01 1.0e+00 1.00e-01
127 1.3e-77 3.2e-107 2.3e-162 -2.58e+03 -2.58e+03 9.9e-01 1.0e+00 1.00e-01
128 1.3e-78 3.2e-107 1.3e-144 -2.58e+03 -2.58e+03 9.9e-01 1.0e+00 1.00e-01
129 1.3e-79 3.2e-107 2.0e-163 -2.58e+03 -2.58e+03 9.9e-01 1.0e+00 1.00e-01
130 1.3e-80 3.2e-107 1.6e-163 -2.58e+03 -2.58e+03 9.9e-01 1.0e+00 1.00e-01
131 1.3e-81 3.2e-107 1.3e-144 -2.58e+03 -2.58e+03 9.9e-01 1.0e+00 1.00e-01
132 1.3e-82 3.2e-107 1.3e-163 -2.58e+03 -2.58e+03 9.9e-01 1.0e+00 1.00e-01
133 1.3e-83 3.2e-107 1.1e-144 -2.58e+03 -2.58e+03 9.9e-01 1.0e+00 1.00e-01
134 1.3e-84 3.2e-107 2.7e-146 -2.58e+03 -2.58e+03 9.9e-01 1.0e+00 1.00e-01
135 1.3e-85 3.2e-107 6.9e-148 -2.58e+03 -2.58e+03 9.9e-01 1.0e+00 1.00e-01
136 1.3e-86 3.2e-107 1.7e-149 -2.58e+03 -2.58e+03 9.9e-01 1.0e+00 1.00e-01
137 1.3e-87 3.2e-107 4.4e-151 -2.58e+03 -2.58e+03 9.9e-01 1.0e+00 1.00e-01
138 1.3e-88 3.2e-107 1.1e-152 -2.58e+03 -2.58e+03 9.9e-01 1.0e+00 1.00e-01
139 1.3e-89 3.2e-107 2.8e-154 -2.58e+03 -2.58e+03 9.9e-01 1.0e+00 1.00e-01
140 1.3e-90 3.2e-107 7.1e-156 -2.58e+03 -2.58e+03 9.9e-01 1.0e+00 1.00e-01
141 1.3e-91 3.2e-107 1.8e-157 -2.58e+03 -2.58e+03 9.9e-01 1.0e+00 1.00e-01
142 1.3e-92 3.2e-107 4.5e-159 -2.58e+03 -2.58e+03 9.9e-01 1.0e+00 1.00e-01
143 1.3e-93 3.2e-107 1.1e-160 -2.58e+03 -2.58e+03 9.9e-01 1.0e+00 1.00e-01
144 1.3e-94 3.2e-107 2.9e-162 -2.58e+03 -2.58e+03 9.9e-01 1.0e+00 1.00e-01
145 1.3e-95 3.2e-107 1.1e-162 -2.58e+03 -2.58e+03 9.9e-01 1.0e+00 1.00e-01
146 1.3e-96 3.2e-107 5.5e-163 -2.58e+03 -2.58e+03 9.9e-01 1.0e+00 1.00e-01
147 1.3e-97 3.2e-107 2.4e-163 -2.58e+03 -2.58e+03 9.9e-01 1.0e+00 1.00e-01
148 1.3e-98 3.2e-107 2.0e-163 -2.58e+03 -2.58e+03 9.9e-01 1.0e+00 1.00e-01

phase.value = pdOPT     
   Iteration = 148
          mu = 1.3355976158396447e-98
relative gap = 2.7799051454013595e-101
         gap = 9.3491833108775126e-98
      digits = 1.0055597002261847e+02
objValPrimal = -2.5759960317460317e+03
objValDual   = -2.5759960317460317e+03
p.feas.error = 3.7878003248979700e-101
d.feas.error = 2.1665409263667733e-154
relative eps = 7.4583407312002067e-155
total time   = 0.020


Parameters are
maxIteration =    1000
epsilonStar  = 1.000e-100
lambdaStar   = 1.000e+05
omegaStar    = 2.000e+00
lowerBound   = -1.000e+05
upperBound   = 1.000e+05
betaStar     = 1.000e-01
betaBar      = 2.000e-01
gammaStar    = 9.000e-01
epsilonDash  = 1.000e-100
precision    =    512

                         Time(sec)  Ratio(% : MainLoop) 
 Predictor time  =       0.010000,  50.000000
 Corrector time  =       0.000000,  0.000000
 Make bMat time  =       0.000000,  0.000000
 Make bDia time  =       0.000000,  0.000000
 Make bF1  time  =       0.000000,  0.000000
 Make bF2  time  =       0.000000,  0.000000
 Make bF3  time  =       0.000000,  0.000000
 Make bPRE time  =       0.000000,  0.000000
 Make rMat time  =       0.000000,  0.000000
 Make gVec Mul   =       0.000000,  0.000000
 Make gVec time  =       0.000000,  0.000000
 Cholesky bMat   =       0.010000,  50.000000
 Ste Pre time    =       0.000000,  0.000000
 Ste Cor time    =       0.000000,  0.000000
 solve           =       0.000000,  0.000000
 sumDz           =       0.000000,  0.000000
 makedX          =       0.000000,  0.000000
 symmetriseDx    =       0.000000,  0.000000
 makedXdZ        =       0.000000,  0.000000
 xMatTime        =       0.000000,  0.000000
 zMatTime        =       0.000000,  0.000000
 invzMatTime     =       0.000000,  0.000000
 xMatzMatTime    =       0.000000,  0.000000
 EigxMatTime     =       0.000000,  0.000000
 EigzMatTime     =       0.000000,  0.000000
 EigxMatzMatTime =       0.000000,  0.000000
 updateRes       =       0.000000,  0.000000
 EigTime         =       0.000000,  0.000000
 sub_total_bMat  =       0.020000,  100.000000
 Main Loop       =       0.020000,  100.000000
 File Check      =       0.000000,  0.000000
 File Change     =       0.000000,  0.000000
 File Read       =       0.000000,  0.000000
 Total           =       0.020000,  100.000000

xVec = 
{+1.00000000000000000000000000000000000000000000000000000000000000000000000000000000000000000000000000000000007057882857092608228780020123496762789508146758442e+00,+4.94999223602484472049689440993788819875776397515527950310559006211180124223602484472049689440993788816907565903861638636550746889902118423694960729142692961e+02,+1.58399758454106280193236714975845410628019323671497584541062801932367149758454106280193236714975845405522411793498933964171567836201268835189288481338392108e+03,+4.94999223602484472049689440993788819875776397515527950310559006211180124223602484472049689440993788814249533068239923474519850823749051054870852894571328672e+02,+9.99999999999999999999999999999999999999999999999999999999999999999999999999999999999999999999999998976522551346998857710949362233514351496439906769876468394e-01}
xMat = 
{
{+5.73168842102636423729041202035285008035876657490610488116661255483500964852707342442657492465163718815576030582344083756897176092794684649785680016279772095e-99}
{+1.36537006315163748081168029199119678699974903766513284133504663358590634124995907080717877963266113085192561162578699727157037951661186453369428197714465748e-97}
{+1.6621896420976456288142194859023265233040423067227704155383176408318473411577326144992866153969631661688547570264851983040707094527335595900773639724628897e-97}
{+3.93374741200828157349896480331262939958592132505175983436853002070393374741200828157349896480193718342475694356738499726246243457951903641337483155866839823e-02}
{+3.22323333353999206668761255672623562280803885631410277460891117915379788112663834876377830621287627184962866273224344074362497774938310267079150433606123569e-102}
{+3.22343895792004851925804761373041012452130231266096143203976283051513867096860977242660477094740466085148156167168372838968455612082410426240852715080652601e-102}
{+7.64607235364916989254540963515070200719859461092474391147626114823554482339253305317035521821653113435316316604429730473773993290763153313269358720627067921e-96}
}
yMat = 
{
{+2.64682539682539682539682539682539682539682539682539682539682539682539682539682539682539682539683923116865415393939923235452109528166054137492820372798281802e+00}
{+1.1111111111111111111111111111111111111111111111111111111111111111111111111111111111111111111111342786715898909670960031455297448895431713615225102302742569e-01}
{+9.12698412698412698412698412698412698412698412698412698412698412698412698412698412698412698412907185514841474600630839774288043947483321354977135046528589252e-02}
{+2.78010725745358271818704413023605341184723004936789429957749284981649726637970055234399139867145677317596882668517989930148487588486757716541407346708545603e-97}
{+3.39333254611808662222025309027181648137641725674188822186938715108546466455023286138742590012647902776696193969180758952782080260843809887982502363702556266e+03}
{+3.39233254611808662222025309027181648137641725674188822186938715108546466455023286138742590012647902776696193969180758952782080260843809887982502363702556266e+03}
{+1.9841269841269841269841269841269841269841269841269841269841269841269841269841269841269841269841215160071195702479317922182393562786585475461416849560015211e-03}
}
    main loop time = 0.020000
        total time = 0.020000
  file   read time = 0.000000
